p cnf 396 1580
c p weight 162 0 0
c p weight -162 1 0
c p weight 163 1.0 0
c p weight -163 1 0
158 -157 155 0
158 -157 156 0
-158 157 155 0
-158 157 156 0
158 157 -155 -156 0
-158 -157 -155 -156 0
159 155 -156 0
159 -155 156 0
-159 155 156 0
-159 -155 -156 0
160 161 -158 0
160 -158 159 0
-160 161 158 0
-160 158 159 0
160 -158 -155 0
-160 158 -155 0
160 -161 158 155 -159 0
-160 -161 -158 155 -159 0
161 -155 159 0
-161 155 159 0
-162 159 0
161 -162 -155 0
-161 -162 155 0
161 162 155 -159 0
-161 162 -155 -159 0
-163 159 0
161 -163 155 0
-161 -163 -155 0
161 163 -155 -159 0
-161 163 155 -159 0
164 -160 161 0
164 -160 159 0
-164 160 161 0
-164 160 159 0
164 160 -161 -159 0
-164 -160 -161 -159 0
165 161 -159 0
165 -161 159 0
-165 161 159 0
-165 -161 -159 0
166 -164 161 0
166 -164 154 0
-166 164 161 0
-166 164 154 0
166 -164 153 -165 0
166 -164 -153 165 0
-166 164 153 -165 0
-166 164 -153 165 0
166 164 -161 153 165 -154 0
166 164 -161 -153 -165 -154 0
-166 -164 -161 153 165 -154 0
-166 -164 -161 -153 -165 -154 0
168 161 -153 0
168 -161 153 0
-168 161 153 0
-168 -161 -153 0
167 165 -154 0
167 -165 154 0
-167 165 154 0
-167 -165 -154 0
169 -166 168 0
169 -166 152 0
-169 166 168 0
-169 166 152 0
169 -166 151 -154 0
169 -166 -151 154 0
-169 166 151 -154 0
-169 166 -151 154 0
169 166 -168 151 154 -152 0
169 166 -168 -151 -154 -152 0
-169 -166 -168 151 154 -152 0
-169 -166 -168 -151 -154 -152 0
171 168 -151 0
171 -168 151 0
-171 168 151 0
-171 -168 -151 0
170 154 -152 0
170 -154 152 0
-170 154 152 0
-170 -154 -152 0
172 -169 171 0
172 -169 150 0
-172 169 171 0
-172 169 150 0
172 -169 149 -152 0
172 -169 -149 152 0
-172 169 149 -152 0
-172 169 -149 152 0
172 169 -171 149 152 -150 0
172 169 -171 -149 -152 -150 0
-172 -169 -171 149 152 -150 0
-172 -169 -171 -149 -152 -150 0
174 171 -149 0
174 -171 149 0
-174 171 149 0
-174 -171 -149 0
173 152 -150 0
173 -152 150 0
-173 152 150 0
-173 -152 -150 0
175 -172 174 0
175 -172 148 0
-175 172 174 0
-175 172 148 0
175 -172 147 -150 0
175 -172 -147 150 0
-175 172 147 -150 0
-175 172 -147 150 0
175 172 -174 147 150 -148 0
175 172 -174 -147 -150 -148 0
-175 -172 -174 147 150 -148 0
-175 -172 -174 -147 -150 -148 0
177 174 -147 0
177 -174 147 0
-177 174 147 0
-177 -174 -147 0
176 150 -148 0
176 -150 148 0
-176 150 148 0
-176 -150 -148 0
178 -175 177 0
178 -175 146 0
-178 175 177 0
-178 175 146 0
178 -175 145 -148 0
178 -175 -145 148 0
-178 175 145 -148 0
-178 175 -145 148 0
178 175 -177 145 148 -146 0
178 175 -177 -145 -148 -146 0
-178 -175 -177 145 148 -146 0
-178 -175 -177 -145 -148 -146 0
180 177 -145 0
180 -177 145 0
-180 177 145 0
-180 -177 -145 0
179 148 -146 0
179 -148 146 0
-179 148 146 0
-179 -148 -146 0
181 -178 180 0
181 -178 144 0
-181 178 180 0
-181 178 144 0
181 -178 143 -146 0
181 -178 -143 146 0
-181 178 143 -146 0
-181 178 -143 146 0
181 178 -180 143 146 -144 0
181 178 -180 -143 -146 -144 0
-181 -178 -180 143 146 -144 0
-181 -178 -180 -143 -146 -144 0
183 180 -143 0
183 -180 143 0
-183 180 143 0
-183 -180 -143 0
182 146 -144 0
182 -146 144 0
-182 146 144 0
-182 -146 -144 0
184 -181 183 0
184 -181 142 0
-184 181 183 0
-184 181 142 0
184 -181 141 -144 0
184 -181 -141 144 0
-184 181 141 -144 0
-184 181 -141 144 0
184 181 -183 141 144 -142 0
184 181 -183 -141 -144 -142 0
-184 -181 -183 141 144 -142 0
-184 -181 -183 -141 -144 -142 0
186 183 -141 0
186 -183 141 0
-186 183 141 0
-186 -183 -141 0
185 144 -142 0
185 -144 142 0
-185 144 142 0
-185 -144 -142 0
187 -184 186 0
187 -184 140 0
-187 184 186 0
-187 184 140 0
187 -184 139 -142 0
187 -184 -139 142 0
-187 184 139 -142 0
-187 184 -139 142 0
187 184 -186 139 142 -140 0
187 184 -186 -139 -142 -140 0
-187 -184 -186 139 142 -140 0
-187 -184 -186 -139 -142 -140 0
189 186 -139 0
189 -186 139 0
-189 186 139 0
-189 -186 -139 0
188 142 -140 0
188 -142 140 0
-188 142 140 0
-188 -142 -140 0
190 -187 189 0
190 -187 138 0
-190 187 189 0
-190 187 138 0
190 -187 137 -140 0
190 -187 -137 140 0
-190 187 137 -140 0
-190 187 -137 140 0
190 187 -189 137 140 -138 0
190 187 -189 -137 -140 -138 0
-190 -187 -189 137 140 -138 0
-190 -187 -189 -137 -140 -138 0
192 189 -137 0
192 -189 137 0
-192 189 137 0
-192 -189 -137 0
191 140 -138 0
191 -140 138 0
-191 140 138 0
-191 -140 -138 0
193 -190 192 0
193 -190 136 0
-193 190 192 0
-193 190 136 0
193 -190 135 -138 0
193 -190 -135 138 0
-193 190 135 -138 0
-193 190 -135 138 0
193 190 -192 135 138 -136 0
193 190 -192 -135 -138 -136 0
-193 -190 -192 135 138 -136 0
-193 -190 -192 -135 -138 -136 0
195 192 -135 0
195 -192 135 0
-195 192 135 0
-195 -192 -135 0
194 138 -136 0
194 -138 136 0
-194 138 136 0
-194 -138 -136 0
196 -193 195 0
196 -193 134 0
-196 193 195 0
-196 193 134 0
196 -193 133 -136 0
196 -193 -133 136 0
-196 193 133 -136 0
-196 193 -133 136 0
196 193 -195 133 136 -134 0
196 193 -195 -133 -136 -134 0
-196 -193 -195 133 136 -134 0
-196 -193 -195 -133 -136 -134 0
198 195 -133 0
198 -195 133 0
-198 195 133 0
-198 -195 -133 0
197 136 -134 0
197 -136 134 0
-197 136 134 0
-197 -136 -134 0
199 -196 198 0
199 -196 132 0
-199 196 198 0
-199 196 132 0
199 -196 131 -134 0
199 -196 -131 134 0
-199 196 131 -134 0
-199 196 -131 134 0
199 196 -198 131 134 -132 0
199 196 -198 -131 -134 -132 0
-199 -196 -198 131 134 -132 0
-199 -196 -198 -131 -134 -132 0
201 198 -131 0
201 -198 131 0
-201 198 131 0
-201 -198 -131 0
200 134 -132 0
200 -134 132 0
-200 134 132 0
-200 -134 -132 0
202 -199 201 0
202 -199 130 0
-202 199 201 0
-202 199 130 0
202 -199 129 -132 0
202 -199 -129 132 0
-202 199 129 -132 0
-202 199 -129 132 0
202 199 -201 129 132 -130 0
202 199 -201 -129 -132 -130 0
-202 -199 -201 129 132 -130 0
-202 -199 -201 -129 -132 -130 0
204 201 -129 0
204 -201 129 0
-204 201 129 0
-204 -201 -129 0
203 132 -130 0
203 -132 130 0
-203 132 130 0
-203 -132 -130 0
205 -202 204 0
205 -202 128 0
-205 202 204 0
-205 202 128 0
205 -202 127 -130 0
205 -202 -127 130 0
-205 202 127 -130 0
-205 202 -127 130 0
205 202 -204 127 130 -128 0
205 202 -204 -127 -130 -128 0
-205 -202 -204 127 130 -128 0
-205 -202 -204 -127 -130 -128 0
207 204 -127 0
207 -204 127 0
-207 204 127 0
-207 -204 -127 0
206 130 -128 0
206 -130 128 0
-206 130 128 0
-206 -130 -128 0
208 -205 207 0
208 -205 126 0
-208 205 207 0
-208 205 126 0
208 -205 125 -128 0
208 -205 -125 128 0
-208 205 125 -128 0
-208 205 -125 128 0
208 205 -207 125 128 -126 0
208 205 -207 -125 -128 -126 0
-208 -205 -207 125 128 -126 0
-208 -205 -207 -125 -128 -126 0
210 207 -125 0
210 -207 125 0
-210 207 125 0
-210 -207 -125 0
209 128 -126 0
209 -128 126 0
-209 128 126 0
-209 -128 -126 0
211 -208 210 0
211 -208 124 0
-211 208 210 0
-211 208 124 0
211 -208 123 -126 0
211 -208 -123 126 0
-211 208 123 -126 0
-211 208 -123 126 0
211 208 -210 123 126 -124 0
211 208 -210 -123 -126 -124 0
-211 -208 -210 123 126 -124 0
-211 -208 -210 -123 -126 -124 0
213 210 -123 0
213 -210 123 0
-213 210 123 0
-213 -210 -123 0
212 126 -124 0
212 -126 124 0
-212 126 124 0
-212 -126 -124 0
214 -211 213 0
214 -211 122 0
-214 211 213 0
-214 211 122 0
214 -211 121 -124 0
214 -211 -121 124 0
-214 211 121 -124 0
-214 211 -121 124 0
214 211 -213 121 124 -122 0
214 211 -213 -121 -124 -122 0
-214 -211 -213 121 124 -122 0
-214 -211 -213 -121 -124 -122 0
216 213 -121 0
216 -213 121 0
-216 213 121 0
-216 -213 -121 0
215 124 -122 0
215 -124 122 0
-215 124 122 0
-215 -124 -122 0
217 -214 216 0
217 -214 120 0
-217 214 216 0
-217 214 120 0
217 -214 119 -122 0
217 -214 -119 122 0
-217 214 119 -122 0
-217 214 -119 122 0
217 214 -216 119 122 -120 0
217 214 -216 -119 -122 -120 0
-217 -214 -216 119 122 -120 0
-217 -214 -216 -119 -122 -120 0
219 216 -119 0
219 -216 119 0
-219 216 119 0
-219 -216 -119 0
218 122 -120 0
218 -122 120 0
-218 122 120 0
-218 -122 -120 0
220 -217 219 0
220 -217 118 0
-220 217 219 0
-220 217 118 0
220 -217 117 -120 0
220 -217 -117 120 0
-220 217 117 -120 0
-220 217 -117 120 0
220 217 -219 117 120 -118 0
220 217 -219 -117 -120 -118 0
-220 -217 -219 117 120 -118 0
-220 -217 -219 -117 -120 -118 0
222 219 -117 0
222 -219 117 0
-222 219 117 0
-222 -219 -117 0
221 120 -118 0
221 -120 118 0
-221 120 118 0
-221 -120 -118 0
223 -220 222 0
223 -220 116 0
-223 220 222 0
-223 220 116 0
223 -220 115 -118 0
223 -220 -115 118 0
-223 220 115 -118 0
-223 220 -115 118 0
223 220 -222 115 118 -116 0
223 220 -222 -115 -118 -116 0
-223 -220 -222 115 118 -116 0
-223 -220 -222 -115 -118 -116 0
225 222 -115 0
225 -222 115 0
-225 222 115 0
-225 -222 -115 0
224 118 -116 0
224 -118 116 0
-224 118 116 0
-224 -118 -116 0
226 -223 225 0
226 -223 114 0
-226 223 225 0
-226 223 114 0
226 -223 113 -116 0
226 -223 -113 116 0
-226 223 113 -116 0
-226 223 -113 116 0
226 223 -225 113 116 -114 0
226 223 -225 -113 -116 -114 0
-226 -223 -225 113 116 -114 0
-226 -223 -225 -113 -116 -114 0
228 225 -113 0
228 -225 113 0
-228 225 113 0
-228 -225 -113 0
227 116 -114 0
227 -116 114 0
-227 116 114 0
-227 -116 -114 0
229 -226 228 0
229 -226 112 0
-229 226 228 0
-229 226 112 0
229 -226 111 -114 0
229 -226 -111 114 0
-229 226 111 -114 0
-229 226 -111 114 0
229 226 -228 111 114 -112 0
229 226 -228 -111 -114 -112 0
-229 -226 -228 111 114 -112 0
-229 -226 -228 -111 -114 -112 0
231 228 -111 0
231 -228 111 0
-231 228 111 0
-231 -228 -111 0
230 114 -112 0
230 -114 112 0
-230 114 112 0
-230 -114 -112 0
232 -229 231 0
232 -229 110 0
-232 229 231 0
-232 229 110 0
232 -229 109 -112 0
232 -229 -109 112 0
-232 229 109 -112 0
-232 229 -109 112 0
232 229 -231 109 112 -110 0
232 229 -231 -109 -112 -110 0
-232 -229 -231 109 112 -110 0
-232 -229 -231 -109 -112 -110 0
234 231 -109 0
234 -231 109 0
-234 231 109 0
-234 -231 -109 0
233 112 -110 0
233 -112 110 0
-233 112 110 0
-233 -112 -110 0
235 -232 234 0
235 -232 108 0
-235 232 234 0
-235 232 108 0
235 -232 107 -110 0
235 -232 -107 110 0
-235 232 107 -110 0
-235 232 -107 110 0
235 232 -234 107 110 -108 0
235 232 -234 -107 -110 -108 0
-235 -232 -234 107 110 -108 0
-235 -232 -234 -107 -110 -108 0
237 234 -107 0
237 -234 107 0
-237 234 107 0
-237 -234 -107 0
236 110 -108 0
236 -110 108 0
-236 110 108 0
-236 -110 -108 0
238 -235 237 0
238 -235 106 0
-238 235 237 0
-238 235 106 0
238 -235 105 -108 0
238 -235 -105 108 0
-238 235 105 -108 0
-238 235 -105 108 0
238 235 -237 105 108 -106 0
238 235 -237 -105 -108 -106 0
-238 -235 -237 105 108 -106 0
-238 -235 -237 -105 -108 -106 0
240 237 -105 0
240 -237 105 0
-240 237 105 0
-240 -237 -105 0
239 108 -106 0
239 -108 106 0
-239 108 106 0
-239 -108 -106 0
241 -238 240 0
241 -238 104 0
-241 238 240 0
-241 238 104 0
241 -238 103 -106 0
241 -238 -103 106 0
-241 238 103 -106 0
-241 238 -103 106 0
241 238 -240 103 106 -104 0
241 238 -240 -103 -106 -104 0
-241 -238 -240 103 106 -104 0
-241 -238 -240 -103 -106 -104 0
243 240 -103 0
243 -240 103 0
-243 240 103 0
-243 -240 -103 0
242 106 -104 0
242 -106 104 0
-242 106 104 0
-242 -106 -104 0
244 -241 243 0
244 -241 102 0
-244 241 243 0
-244 241 102 0
244 -241 101 -104 0
244 -241 -101 104 0
-244 241 101 -104 0
-244 241 -101 104 0
244 241 -243 101 104 -102 0
244 241 -243 -101 -104 -102 0
-244 -241 -243 101 104 -102 0
-244 -241 -243 -101 -104 -102 0
246 243 -101 0
246 -243 101 0
-246 243 101 0
-246 -243 -101 0
245 104 -102 0
245 -104 102 0
-245 104 102 0
-245 -104 -102 0
247 -244 246 0
247 -244 100 0
-247 244 246 0
-247 244 100 0
247 -244 99 -102 0
247 -244 -99 102 0
-247 244 99 -102 0
-247 244 -99 102 0
247 244 -246 99 102 -100 0
247 244 -246 -99 -102 -100 0
-247 -244 -246 99 102 -100 0
-247 -244 -246 -99 -102 -100 0
249 246 -99 0
249 -246 99 0
-249 246 99 0
-249 -246 -99 0
248 102 -100 0
248 -102 100 0
-248 102 100 0
-248 -102 -100 0
250 -247 249 0
250 -247 98 0
-250 247 249 0
-250 247 98 0
250 -247 97 -100 0
250 -247 -97 100 0
-250 247 97 -100 0
-250 247 -97 100 0
250 247 -249 97 100 -98 0
250 247 -249 -97 -100 -98 0
-250 -247 -249 97 100 -98 0
-250 -247 -249 -97 -100 -98 0
252 249 -97 0
252 -249 97 0
-252 249 97 0
-252 -249 -97 0
251 100 -98 0
251 -100 98 0
-251 100 98 0
-251 -100 -98 0
253 -250 252 0
253 -250 96 0
-253 250 252 0
-253 250 96 0
253 -250 95 -98 0
253 -250 -95 98 0
-253 250 95 -98 0
-253 250 -95 98 0
253 250 -252 95 98 -96 0
253 250 -252 -95 -98 -96 0
-253 -250 -252 95 98 -96 0
-253 -250 -252 -95 -98 -96 0
255 252 -95 0
255 -252 95 0
-255 252 95 0
-255 -252 -95 0
254 98 -96 0
254 -98 96 0
-254 98 96 0
-254 -98 -96 0
256 -253 255 0
256 -253 94 0
-256 253 255 0
-256 253 94 0
256 -253 93 -96 0
256 -253 -93 96 0
-256 253 93 -96 0
-256 253 -93 96 0
256 253 -255 93 96 -94 0
256 253 -255 -93 -96 -94 0
-256 -253 -255 93 96 -94 0
-256 -253 -255 -93 -96 -94 0
258 255 -93 0
258 -255 93 0
-258 255 93 0
-258 -255 -93 0
257 96 -94 0
257 -96 94 0
-257 96 94 0
-257 -96 -94 0
259 -256 258 0
259 -256 92 0
-259 256 258 0
-259 256 92 0
259 -256 91 -94 0
259 -256 -91 94 0
-259 256 91 -94 0
-259 256 -91 94 0
259 256 -258 91 94 -92 0
259 256 -258 -91 -94 -92 0
-259 -256 -258 91 94 -92 0
-259 -256 -258 -91 -94 -92 0
261 258 -91 0
261 -258 91 0
-261 258 91 0
-261 -258 -91 0
260 94 -92 0
260 -94 92 0
-260 94 92 0
-260 -94 -92 0
262 -259 261 0
262 -259 90 0
-262 259 261 0
-262 259 90 0
262 -259 89 -92 0
262 -259 -89 92 0
-262 259 89 -92 0
-262 259 -89 92 0
262 259 -261 89 92 -90 0
262 259 -261 -89 -92 -90 0
-262 -259 -261 89 92 -90 0
-262 -259 -261 -89 -92 -90 0
264 261 -89 0
264 -261 89 0
-264 261 89 0
-264 -261 -89 0
263 92 -90 0
263 -92 90 0
-263 92 90 0
-263 -92 -90 0
265 -262 264 0
265 -262 88 0
-265 262 264 0
-265 262 88 0
265 -262 87 -90 0
265 -262 -87 90 0
-265 262 87 -90 0
-265 262 -87 90 0
265 262 -264 87 90 -88 0
265 262 -264 -87 -90 -88 0
-265 -262 -264 87 90 -88 0
-265 -262 -264 -87 -90 -88 0
267 264 -87 0
267 -264 87 0
-267 264 87 0
-267 -264 -87 0
266 90 -88 0
266 -90 88 0
-266 90 88 0
-266 -90 -88 0
268 -265 267 0
268 -265 86 0
-268 265 267 0
-268 265 86 0
268 -265 85 -88 0
268 -265 -85 88 0
-268 265 85 -88 0
-268 265 -85 88 0
268 265 -267 85 88 -86 0
268 265 -267 -85 -88 -86 0
-268 -265 -267 85 88 -86 0
-268 -265 -267 -85 -88 -86 0
270 267 -85 0
270 -267 85 0
-270 267 85 0
-270 -267 -85 0
269 88 -86 0
269 -88 86 0
-269 88 86 0
-269 -88 -86 0
271 -268 270 0
271 -268 84 0
-271 268 270 0
-271 268 84 0
271 -268 83 -86 0
271 -268 -83 86 0
-271 268 83 -86 0
-271 268 -83 86 0
271 268 -270 83 86 -84 0
271 268 -270 -83 -86 -84 0
-271 -268 -270 83 86 -84 0
-271 -268 -270 -83 -86 -84 0
273 270 -83 0
273 -270 83 0
-273 270 83 0
-273 -270 -83 0
272 86 -84 0
272 -86 84 0
-272 86 84 0
-272 -86 -84 0
274 -271 273 0
274 -271 82 0
-274 271 273 0
-274 271 82 0
274 -271 81 -84 0
274 -271 -81 84 0
-274 271 81 -84 0
-274 271 -81 84 0
274 271 -273 81 84 -82 0
274 271 -273 -81 -84 -82 0
-274 -271 -273 81 84 -82 0
-274 -271 -273 -81 -84 -82 0
276 273 -81 0
276 -273 81 0
-276 273 81 0
-276 -273 -81 0
275 84 -82 0
275 -84 82 0
-275 84 82 0
-275 -84 -82 0
277 -274 276 0
277 -274 80 0
-277 274 276 0
-277 274 80 0
277 -274 79 -82 0
277 -274 -79 82 0
-277 274 79 -82 0
-277 274 -79 82 0
277 274 -276 79 82 -80 0
277 274 -276 -79 -82 -80 0
-277 -274 -276 79 82 -80 0
-277 -274 -276 -79 -82 -80 0
279 276 -79 0
279 -276 79 0
-279 276 79 0
-279 -276 -79 0
278 82 -80 0
278 -82 80 0
-278 82 80 0
-278 -82 -80 0
280 -277 279 0
280 -277 78 0
-280 277 279 0
-280 277 78 0
280 -277 77 -80 0
280 -277 -77 80 0
-280 277 77 -80 0
-280 277 -77 80 0
280 277 -279 77 80 -78 0
280 277 -279 -77 -80 -78 0
-280 -277 -279 77 80 -78 0
-280 -277 -279 -77 -80 -78 0
282 279 -77 0
282 -279 77 0
-282 279 77 0
-282 -279 -77 0
281 80 -78 0
281 -80 78 0
-281 80 78 0
-281 -80 -78 0
283 -280 282 0
283 -280 76 0
-283 280 282 0
-283 280 76 0
283 -280 75 -78 0
283 -280 -75 78 0
-283 280 75 -78 0
-283 280 -75 78 0
283 280 -282 75 78 -76 0
283 280 -282 -75 -78 -76 0
-283 -280 -282 75 78 -76 0
-283 -280 -282 -75 -78 -76 0
285 282 -75 0
285 -282 75 0
-285 282 75 0
-285 -282 -75 0
284 78 -76 0
284 -78 76 0
-284 78 76 0
-284 -78 -76 0
286 -283 285 0
286 -283 74 0
-286 283 285 0
-286 283 74 0
286 -283 73 -76 0
286 -283 -73 76 0
-286 283 73 -76 0
-286 283 -73 76 0
286 283 -285 73 76 -74 0
286 283 -285 -73 -76 -74 0
-286 -283 -285 73 76 -74 0
-286 -283 -285 -73 -76 -74 0
288 285 -73 0
288 -285 73 0
-288 285 73 0
-288 -285 -73 0
287 76 -74 0
287 -76 74 0
-287 76 74 0
-287 -76 -74 0
289 -286 288 0
289 -286 72 0
-289 286 288 0
-289 286 72 0
289 -286 71 -74 0
289 -286 -71 74 0
-289 286 71 -74 0
-289 286 -71 74 0
289 286 -288 71 74 -72 0
289 286 -288 -71 -74 -72 0
-289 -286 -288 71 74 -72 0
-289 -286 -288 -71 -74 -72 0
291 288 -71 0
291 -288 71 0
-291 288 71 0
-291 -288 -71 0
290 74 -72 0
290 -74 72 0
-290 74 72 0
-290 -74 -72 0
292 -289 291 0
292 -289 70 0
-292 289 291 0
-292 289 70 0
292 -289 69 -72 0
292 -289 -69 72 0
-292 289 69 -72 0
-292 289 -69 72 0
292 289 -291 69 72 -70 0
292 289 -291 -69 -72 -70 0
-292 -289 -291 69 72 -70 0
-292 -289 -291 -69 -72 -70 0
294 291 -69 0
294 -291 69 0
-294 291 69 0
-294 -291 -69 0
293 72 -70 0
293 -72 70 0
-293 72 70 0
-293 -72 -70 0
295 -292 294 0
295 -292 68 0
-295 292 294 0
-295 292 68 0
295 -292 67 -70 0
295 -292 -67 70 0
-295 292 67 -70 0
-295 292 -67 70 0
295 292 -294 67 70 -68 0
295 292 -294 -67 -70 -68 0
-295 -292 -294 67 70 -68 0
-295 -292 -294 -67 -70 -68 0
297 294 -67 0
297 -294 67 0
-297 294 67 0
-297 -294 -67 0
296 70 -68 0
296 -70 68 0
-296 70 68 0
-296 -70 -68 0
298 -295 297 0
298 -295 66 0
-298 295 297 0
-298 295 66 0
298 -295 65 -68 0
298 -295 -65 68 0
-298 295 65 -68 0
-298 295 -65 68 0
298 295 -297 65 68 -66 0
298 295 -297 -65 -68 -66 0
-298 -295 -297 65 68 -66 0
-298 -295 -297 -65 -68 -66 0
300 297 -65 0
300 -297 65 0
-300 297 65 0
-300 -297 -65 0
299 68 -66 0
299 -68 66 0
-299 68 66 0
-299 -68 -66 0
301 -298 300 0
301 -298 64 0
-301 298 300 0
-301 298 64 0
301 -298 63 -66 0
301 -298 -63 66 0
-301 298 63 -66 0
-301 298 -63 66 0
301 298 -300 63 66 -64 0
301 298 -300 -63 -66 -64 0
-301 -298 -300 63 66 -64 0
-301 -298 -300 -63 -66 -64 0
303 300 -63 0
303 -300 63 0
-303 300 63 0
-303 -300 -63 0
302 66 -64 0
302 -66 64 0
-302 66 64 0
-302 -66 -64 0
304 -301 303 0
304 -301 62 0
-304 301 303 0
-304 301 62 0
304 -301 61 -64 0
304 -301 -61 64 0
-304 301 61 -64 0
-304 301 -61 64 0
304 301 -303 61 64 -62 0
304 301 -303 -61 -64 -62 0
-304 -301 -303 61 64 -62 0
-304 -301 -303 -61 -64 -62 0
306 303 -61 0
306 -303 61 0
-306 303 61 0
-306 -303 -61 0
305 64 -62 0
305 -64 62 0
-305 64 62 0
-305 -64 -62 0
307 -304 306 0
307 -304 60 0
-307 304 306 0
-307 304 60 0
307 -304 59 -62 0
307 -304 -59 62 0
-307 304 59 -62 0
-307 304 -59 62 0
307 304 -306 59 62 -60 0
307 304 -306 -59 -62 -60 0
-307 -304 -306 59 62 -60 0
-307 -304 -306 -59 -62 -60 0
309 306 -59 0
309 -306 59 0
-309 306 59 0
-309 -306 -59 0
308 62 -60 0
308 -62 60 0
-308 62 60 0
-308 -62 -60 0
310 -307 309 0
310 -307 58 0
-310 307 309 0
-310 307 58 0
310 -307 57 -60 0
310 -307 -57 60 0
-310 307 57 -60 0
-310 307 -57 60 0
310 307 -309 57 60 -58 0
310 307 -309 -57 -60 -58 0
-310 -307 -309 57 60 -58 0
-310 -307 -309 -57 -60 -58 0
312 309 -57 0
312 -309 57 0
-312 309 57 0
-312 -309 -57 0
311 60 -58 0
311 -60 58 0
-311 60 58 0
-311 -60 -58 0
313 -310 312 0
313 -310 56 0
-313 310 312 0
-313 310 56 0
313 -310 55 -58 0
313 -310 -55 58 0
-313 310 55 -58 0
-313 310 -55 58 0
313 310 -312 55 58 -56 0
313 310 -312 -55 -58 -56 0
-313 -310 -312 55 58 -56 0
-313 -310 -312 -55 -58 -56 0
315 312 -55 0
315 -312 55 0
-315 312 55 0
-315 -312 -55 0
314 58 -56 0
314 -58 56 0
-314 58 56 0
-314 -58 -56 0
316 -313 315 0
316 -313 54 0
-316 313 315 0
-316 313 54 0
316 -313 53 -56 0
316 -313 -53 56 0
-316 313 53 -56 0
-316 313 -53 56 0
316 313 -315 53 56 -54 0
316 313 -315 -53 -56 -54 0
-316 -313 -315 53 56 -54 0
-316 -313 -315 -53 -56 -54 0
318 315 -53 0
318 -315 53 0
-318 315 53 0
-318 -315 -53 0
317 56 -54 0
317 -56 54 0
-317 56 54 0
-317 -56 -54 0
319 -316 318 0
319 -316 52 0
-319 316 318 0
-319 316 52 0
319 -316 51 -54 0
319 -316 -51 54 0
-319 316 51 -54 0
-319 316 -51 54 0
319 316 -318 51 54 -52 0
319 316 -318 -51 -54 -52 0
-319 -316 -318 51 54 -52 0
-319 -316 -318 -51 -54 -52 0
321 318 -51 0
321 -318 51 0
-321 318 51 0
-321 -318 -51 0
320 54 -52 0
320 -54 52 0
-320 54 52 0
-320 -54 -52 0
322 -319 321 0
322 -319 50 0
-322 319 321 0
-322 319 50 0
322 -319 49 -52 0
322 -319 -49 52 0
-322 319 49 -52 0
-322 319 -49 52 0
322 319 -321 49 52 -50 0
322 319 -321 -49 -52 -50 0
-322 -319 -321 49 52 -50 0
-322 -319 -321 -49 -52 -50 0
324 321 -49 0
324 -321 49 0
-324 321 49 0
-324 -321 -49 0
323 52 -50 0
323 -52 50 0
-323 52 50 0
-323 -52 -50 0
325 -322 324 0
325 -322 48 0
-325 322 324 0
-325 322 48 0
325 -322 47 -50 0
325 -322 -47 50 0
-325 322 47 -50 0
-325 322 -47 50 0
325 322 -324 47 50 -48 0
325 322 -324 -47 -50 -48 0
-325 -322 -324 47 50 -48 0
-325 -322 -324 -47 -50 -48 0
327 324 -47 0
327 -324 47 0
-327 324 47 0
-327 -324 -47 0
326 50 -48 0
326 -50 48 0
-326 50 48 0
-326 -50 -48 0
328 -325 327 0
328 -325 46 0
-328 325 327 0
-328 325 46 0
328 -325 45 -48 0
328 -325 -45 48 0
-328 325 45 -48 0
-328 325 -45 48 0
328 325 -327 45 48 -46 0
328 325 -327 -45 -48 -46 0
-328 -325 -327 45 48 -46 0
-328 -325 -327 -45 -48 -46 0
330 327 -45 0
330 -327 45 0
-330 327 45 0
-330 -327 -45 0
329 48 -46 0
329 -48 46 0
-329 48 46 0
-329 -48 -46 0
331 -328 330 0
331 -328 44 0
-331 328 330 0
-331 328 44 0
331 -328 43 -46 0
331 -328 -43 46 0
-331 328 43 -46 0
-331 328 -43 46 0
331 328 -330 43 46 -44 0
331 328 -330 -43 -46 -44 0
-331 -328 -330 43 46 -44 0
-331 -328 -330 -43 -46 -44 0
333 330 -43 0
333 -330 43 0
-333 330 43 0
-333 -330 -43 0
332 46 -44 0
332 -46 44 0
-332 46 44 0
-332 -46 -44 0
334 -331 333 0
334 -331 42 0
-334 331 333 0
-334 331 42 0
334 -331 41 -44 0
334 -331 -41 44 0
-334 331 41 -44 0
-334 331 -41 44 0
334 331 -333 41 44 -42 0
334 331 -333 -41 -44 -42 0
-334 -331 -333 41 44 -42 0
-334 -331 -333 -41 -44 -42 0
336 333 -41 0
336 -333 41 0
-336 333 41 0
-336 -333 -41 0
335 44 -42 0
335 -44 42 0
-335 44 42 0
-335 -44 -42 0
337 -334 336 0
337 -334 40 0
-337 334 336 0
-337 334 40 0
337 -334 39 -42 0
337 -334 -39 42 0
-337 334 39 -42 0
-337 334 -39 42 0
337 334 -336 39 42 -40 0
337 334 -336 -39 -42 -40 0
-337 -334 -336 39 42 -40 0
-337 -334 -336 -39 -42 -40 0
339 336 -39 0
339 -336 39 0
-339 336 39 0
-339 -336 -39 0
338 42 -40 0
338 -42 40 0
-338 42 40 0
-338 -42 -40 0
340 -337 339 0
340 -337 38 0
-340 337 339 0
-340 337 38 0
340 -337 37 -40 0
340 -337 -37 40 0
-340 337 37 -40 0
-340 337 -37 40 0
340 337 -339 37 40 -38 0
340 337 -339 -37 -40 -38 0
-340 -337 -339 37 40 -38 0
-340 -337 -339 -37 -40 -38 0
342 339 -37 0
342 -339 37 0
-342 339 37 0
-342 -339 -37 0
341 40 -38 0
341 -40 38 0
-341 40 38 0
-341 -40 -38 0
343 -340 342 0
343 -340 36 0
-343 340 342 0
-343 340 36 0
343 -340 35 -38 0
343 -340 -35 38 0
-343 340 35 -38 0
-343 340 -35 38 0
343 340 -342 35 38 -36 0
343 340 -342 -35 -38 -36 0
-343 -340 -342 35 38 -36 0
-343 -340 -342 -35 -38 -36 0
345 342 -35 0
345 -342 35 0
-345 342 35 0
-345 -342 -35 0
344 38 -36 0
344 -38 36 0
-344 38 36 0
-344 -38 -36 0
346 -343 345 0
346 -343 34 0
-346 343 345 0
-346 343 34 0
346 -343 33 -36 0
346 -343 -33 36 0
-346 343 33 -36 0
-346 343 -33 36 0
346 343 -345 33 36 -34 0
346 343 -345 -33 -36 -34 0
-346 -343 -345 33 36 -34 0
-346 -343 -345 -33 -36 -34 0
348 345 -33 0
348 -345 33 0
-348 345 33 0
-348 -345 -33 0
347 36 -34 0
347 -36 34 0
-347 36 34 0
-347 -36 -34 0
349 -346 348 0
349 -346 32 0
-349 346 348 0
-349 346 32 0
349 -346 31 -34 0
349 -346 -31 34 0
-349 346 31 -34 0
-349 346 -31 34 0
349 346 -348 31 34 -32 0
349 346 -348 -31 -34 -32 0
-349 -346 -348 31 34 -32 0
-349 -346 -348 -31 -34 -32 0
351 348 -31 0
351 -348 31 0
-351 348 31 0
-351 -348 -31 0
350 34 -32 0
350 -34 32 0
-350 34 32 0
-350 -34 -32 0
352 -349 351 0
352 -349 30 0
-352 349 351 0
-352 349 30 0
352 -349 29 -32 0
352 -349 -29 32 0
-352 349 29 -32 0
-352 349 -29 32 0
352 349 -351 29 32 -30 0
352 349 -351 -29 -32 -30 0
-352 -349 -351 29 32 -30 0
-352 -349 -351 -29 -32 -30 0
354 351 -29 0
354 -351 29 0
-354 351 29 0
-354 -351 -29 0
353 32 -30 0
353 -32 30 0
-353 32 30 0
-353 -32 -30 0
355 -352 354 0
355 -352 28 0
-355 352 354 0
-355 352 28 0
355 -352 27 -30 0
355 -352 -27 30 0
-355 352 27 -30 0
-355 352 -27 30 0
355 352 -354 27 30 -28 0
355 352 -354 -27 -30 -28 0
-355 -352 -354 27 30 -28 0
-355 -352 -354 -27 -30 -28 0
357 354 -27 0
357 -354 27 0
-357 354 27 0
-357 -354 -27 0
356 30 -28 0
356 -30 28 0
-356 30 28 0
-356 -30 -28 0
358 -355 357 0
358 -355 26 0
-358 355 357 0
-358 355 26 0
358 -355 25 -28 0
358 -355 -25 28 0
-358 355 25 -28 0
-358 355 -25 28 0
358 355 -357 25 28 -26 0
358 355 -357 -25 -28 -26 0
-358 -355 -357 25 28 -26 0
-358 -355 -357 -25 -28 -26 0
360 357 -25 0
360 -357 25 0
-360 357 25 0
-360 -357 -25 0
359 28 -26 0
359 -28 26 0
-359 28 26 0
-359 -28 -26 0
361 -358 360 0
361 -358 24 0
-361 358 360 0
-361 358 24 0
361 -358 23 -26 0
361 -358 -23 26 0
-361 358 23 -26 0
-361 358 -23 26 0
361 358 -360 23 26 -24 0
361 358 -360 -23 -26 -24 0
-361 -358 -360 23 26 -24 0
-361 -358 -360 -23 -26 -24 0
363 360 -23 0
363 -360 23 0
-363 360 23 0
-363 -360 -23 0
362 26 -24 0
362 -26 24 0
-362 26 24 0
-362 -26 -24 0
364 -361 363 0
364 -361 22 0
-364 361 363 0
-364 361 22 0
364 -361 21 -24 0
364 -361 -21 24 0
-364 361 21 -24 0
-364 361 -21 24 0
364 361 -363 21 24 -22 0
364 361 -363 -21 -24 -22 0
-364 -361 -363 21 24 -22 0
-364 -361 -363 -21 -24 -22 0
366 363 -21 0
366 -363 21 0
-366 363 21 0
-366 -363 -21 0
365 24 -22 0
365 -24 22 0
-365 24 22 0
-365 -24 -22 0
367 -364 366 0
367 -364 20 0
-367 364 366 0
-367 364 20 0
367 -364 19 -22 0
367 -364 -19 22 0
-367 364 19 -22 0
-367 364 -19 22 0
367 364 -366 19 22 -20 0
367 364 -366 -19 -22 -20 0
-367 -364 -366 19 22 -20 0
-367 -364 -366 -19 -22 -20 0
369 366 -19 0
369 -366 19 0
-369 366 19 0
-369 -366 -19 0
368 22 -20 0
368 -22 20 0
-368 22 20 0
-368 -22 -20 0
370 -367 369 0
370 -367 18 0
-370 367 369 0
-370 367 18 0
370 -367 17 -20 0
370 -367 -17 20 0
-370 367 17 -20 0
-370 367 -17 20 0
370 367 -369 17 20 -18 0
370 367 -369 -17 -20 -18 0
-370 -367 -369 17 20 -18 0
-370 -367 -369 -17 -20 -18 0
372 369 -17 0
372 -369 17 0
-372 369 17 0
-372 -369 -17 0
371 20 -18 0
371 -20 18 0
-371 20 18 0
-371 -20 -18 0
373 -370 372 0
373 -370 16 0
-373 370 372 0
-373 370 16 0
373 -370 15 -18 0
373 -370 -15 18 0
-373 370 15 -18 0
-373 370 -15 18 0
373 370 -372 15 18 -16 0
373 370 -372 -15 -18 -16 0
-373 -370 -372 15 18 -16 0
-373 -370 -372 -15 -18 -16 0
375 372 -15 0
375 -372 15 0
-375 372 15 0
-375 -372 -15 0
374 18 -16 0
374 -18 16 0
-374 18 16 0
-374 -18 -16 0
376 -373 375 0
376 -373 14 0
-376 373 375 0
-376 373 14 0
376 -373 13 -16 0
376 -373 -13 16 0
-376 373 13 -16 0
-376 373 -13 16 0
376 373 -375 13 16 -14 0
376 373 -375 -13 -16 -14 0
-376 -373 -375 13 16 -14 0
-376 -373 -375 -13 -16 -14 0
378 375 -13 0
378 -375 13 0
-378 375 13 0
-378 -375 -13 0
377 16 -14 0
377 -16 14 0
-377 16 14 0
-377 -16 -14 0
379 -376 378 0
379 -376 12 0
-379 376 378 0
-379 376 12 0
379 -376 11 -14 0
379 -376 -11 14 0
-379 376 11 -14 0
-379 376 -11 14 0
379 376 -378 11 14 -12 0
379 376 -378 -11 -14 -12 0
-379 -376 -378 11 14 -12 0
-379 -376 -378 -11 -14 -12 0
381 378 -11 0
381 -378 11 0
-381 378 11 0
-381 -378 -11 0
380 14 -12 0
380 -14 12 0
-380 14 12 0
-380 -14 -12 0
382 -379 381 0
382 -379 10 0
-382 379 381 0
-382 379 10 0
382 -379 9 -12 0
382 -379 -9 12 0
-382 379 9 -12 0
-382 379 -9 12 0
382 379 -381 9 12 -10 0
382 379 -381 -9 -12 -10 0
-382 -379 -381 9 12 -10 0
-382 -379 -381 -9 -12 -10 0
384 381 -9 0
384 -381 9 0
-384 381 9 0
-384 -381 -9 0
383 12 -10 0
383 -12 10 0
-383 12 10 0
-383 -12 -10 0
385 -382 384 0
385 -382 8 0
-385 382 384 0
-385 382 8 0
385 -382 7 -10 0
385 -382 -7 10 0
-385 382 7 -10 0
-385 382 -7 10 0
385 382 -384 7 10 -8 0
385 382 -384 -7 -10 -8 0
-385 -382 -384 7 10 -8 0
-385 -382 -384 -7 -10 -8 0
387 384 -7 0
387 -384 7 0
-387 384 7 0
-387 -384 -7 0
386 10 -8 0
386 -10 8 0
-386 10 8 0
-386 -10 -8 0
388 -385 387 0
388 -385 6 0
-388 385 387 0
-388 385 6 0
388 -385 5 -8 0
388 -385 -5 8 0
-388 385 5 -8 0
-388 385 -5 8 0
388 385 -387 5 8 -6 0
388 385 -387 -5 -8 -6 0
-388 -385 -387 5 8 -6 0
-388 -385 -387 -5 -8 -6 0
390 387 -5 0
390 -387 5 0
-390 387 5 0
-390 -387 -5 0
389 8 -6 0
389 -8 6 0
-389 8 6 0
-389 -8 -6 0
391 -388 390 0
391 -388 4 0
-391 388 390 0
-391 388 4 0
391 -388 3 -6 0
391 -388 -3 6 0
-391 388 3 -6 0
-391 388 -3 6 0
391 388 -390 3 6 -4 0
391 388 -390 -3 -6 -4 0
-391 -388 -390 3 6 -4 0
-391 -388 -390 -3 -6 -4 0
393 390 -3 0
393 -390 3 0
-393 390 3 0
-393 -390 -3 0
392 6 -4 0
392 -6 4 0
-392 6 4 0
-392 -6 -4 0
394 -391 393 0
394 -391 2 0
-394 391 393 0
-394 391 2 0
394 -391 1 -4 0
394 -391 -1 4 0
-394 391 1 -4 0
-394 391 -1 4 0
394 391 -393 1 4 -2 0
394 391 -393 -1 -4 -2 0
-394 -391 -393 1 4 -2 0
-394 -391 -393 -1 -4 -2 0
396 393 -1 0
396 -393 1 0
-396 393 1 0
-396 -393 -1 0
395 4 -2 0
395 -4 2 0
-395 4 2 0
-395 -4 -2 0
